NAME : morphed20-2-1
COMMENT : Generated using the function morphInstances from the R-package netgen (Bossek,2015) - Number of clusters: 2 Alpha: 0.5
TYPE : TSP
DIMENSION : 20
EDGE_WEIGHT_TYPE : EUC_2D
NODE_COORD_SECTION
1 14.3709542073 85.765981348
2 43.4685662435 15.6591819833
3 41.8602807688 67.0536512201
4 77.6203011085 12.9566877187
5 29.9775069198 26.3513562389
6 79.4132805221 29.6772430532
7 72.0105387166 4.9190833518
8 63.0012809625 32.0893905131
9 35.2330333772 83.0588841342
10 4.7372599383 54.4741990397
11 13.9551830222 60.4140747547
12 16.1162829586 62.3899616853
13 60.0820760997 30.197605967
14 40.8445297427 12.5338953807
15 40.7375124089 80.4340125852
16 30.0890894051 70.6304310998
17 39.4594711483 77.9648222241
18 80.7232975733 11.4160595919
19 23.0651970765 74.102853751
20 69.2964800758 27.471296451
EOF
